nNurses = 127;
nHours = 33;
minHours = 5;
maxHours = 18;
maxConsec = 17;
maxPresence = 20;
demand = [12, 13, 13, 8, 6, 9, 12, 16, 19, 19, 24, 29, 24, 22, 20, 20, 19, 16, 20, 24, 19, 15, 16, 20, 19, 14, 18, 14, 18, 18, 16, 12, 15];
